20	5
0	7	6	2	3	7	1	5	4
1	2	10	14
2	4	12	20	19	11
3	4	20	9	11	14
4	1	15
5	5	16	18	14	9	20
6	3	10	14	13
7	5	9	14	20	18	16
8	5	15	20	18	16	9
9	1	19
10	1	11
11	3	16	18	17
12	0
13	2	8	11
14	0
15	1	21
16	1	21
17	1	21
18	1	21
19	1	21
20	1	21
21	0
0	0	0	0	0	0	0
1	2	3	0	0	0	0
2	4	2	4	1	1	0
3	6	1	5	5	4	5
4	2	2	3	5	0	2
5	10	0	5	2	0	0
6	6	5	1	2	0	1
7	6	1	1	2	4	5
8	3	0	0	0	0	2
9	9	0	3	2	1	2
10	2	1	5	2	5	0
11	6	4	5	2	3	3
12	9	5	2	1	1	5
13	8	4	4	2	5	4
14	9	1	1	1	2	3
15	1	0	4	0	3	0
16	2	2	3	3	4	5
17	4	2	3	0	2	4
18	9	0	3	0	4	0
19	10	4	0	2	3	1
20	10	1	3	0	1	3
21	0	0	0	0	0	0
6	6	6	6	7
